NAME: ACTUAL_TOURS/amz0225
TYPE: TOUR
COMMENT: RouteID_16bb968d-9c54-40a5-949b-fec1002bd45d
DIMENSION: 142
TOUR_SECTION
101
57
124
3
18
142
20
23
63
117
54
115
36
31
127
46
30
90
68
1
107
109
25
103
10
77
60
136
6
52
100
27
133
11
84
2
106
34
24
102
19
81
37
72
135
26
73
29
78
71
99
21
42
16
74
119
41
47
131
94
56
104
108
85
112
65
86
12
55
129
137
121
83
88
126
140
15
128
70
38
9
14
43
4
50
67
49
122
89
64
97
95
33
8
93
35
80
91
111
61
123
7
113
110
5
139
92
138
114
44
53
76
98
17
116
69
58
51
118
87
62
105
130
59
82
22
134
45
28
48
40
141
125
132
66
96
13
79
75
32
39
120
-1
EOF
